solution status: optimal solution found
objective value:                                    2
x4                                                  1 	(obj:1)
x1                                                  1 	(obj:1)
